instances/instance_average_2.dzn
num_days = 5;
num_time_slots = 60;
num_patients = 5;
num_visits = 3;
duration = [1, 1, 2];
lab_names = ["Radiography", "Blood Sample", "TAC"];
required = [| 0, 1, 1 | 0, 1, 1 | 1, 1, 0 | 0, 0, 1 | 1, 0, 1 |];